 16
 169122 435204 480076 638597 906325 613953 713858 817993 18612 819650 867495 992711 509674 103140 481247 334219
 319363 924519 1016542 1387079 1840227 1346660 1515021 1572948 37076 1702673 1623789 1968433 1004311 221324 956448 692230
 4450938